Instance Name : r107
Date : 2022-07-20
Solution
Route 1 : 1 51 65 71 9 35 34 77 28
Route 2 : 50 33 81 78 79 3 68 80 12
Route 3 : 69 88 30 20 66 32 90 70
Route 4 : 62 11 64 63 10 31
Route 5 : 27 76 29 24 55 25 54
Route 6 : 21 72 39 23 67 56 75 4 26
Route 7 : 2 57 15 41 22 74 73
Route 8 : 53 40 13 58
Route 9 : 18 46 36 49 19 47 48 82 7 52
Route 10 : 60 83 45 8 84 17 5 89
Route 11 : 94 95 92 96 99 6 87 97 37 100 98 59
Route 12 : 42 43 14 44 38 86 16 61 91 85 93
